\ LP format - for model browsing. Use MPS format to capture full model detail.
Maximize
  44.33333333333334 z1 + 24 z2 + 38 z3 + 12.66666666666666 z4
   + 25.33333333333334 z5 + 22.16666666666669 z6 + 19 z7 + 9.5 z8 + 18 z9
   + 33 z10 + 12.66666666666665 z11 + 46 z12 + 19 z13 + 28.5 z14 + 39.5 z15
   + 38 z16 + 33 z17 + 37.6666666666667 z18 + 44.33333333333335 z19
   + 38 z20
Subject To
 constraint1: 47 z1 + 24 z2 + 41 z3 + 14 z4 + 26 z5 + 23 z6 + 19 z7 + 11 z8
   + 18 z9 + 33 z10 + 13 z11 + 46 z12 + 20 z13 + 32 z14 + 41 z15 + 39 z16
   + 36 z17 + 41 z18 + 48 z19 + 40 z20 <= 200
 constraints2_2_&_17: z2 - z17 = 0
 constraints2_3_&_12: z3 - z12 = 0
 constraints2_12_&_15: z12 - z15 = 0
 constraints2_9_&_10: z9 - z10 = 0
 constraints2_10_&_18: z10 - z18 = 0
 constraints3_2_|_7: z2 + z7 <= 1
 constraints3_2_|_9: z2 + z9 <= 1
 constraints3_2_|_14: z2 + z14 <= 1
 constraints3_2_|_20: z2 + z20 <= 1
 constraints3_3_|_4: z3 + z4 <= 1
 constraints3_3_|_9: z3 + z9 <= 1
 constraints3_3_|_10: z3 + z10 <= 1
 constraints3_3_|_11: z3 + z11 <= 1
 constraints3_3_|_19: z3 + z19 <= 1
 constraints3_7_|_17: z7 + z17 <= 1
 constraints3_9_|_12: z9 + z12 <= 1
 constraints3_9_|_16: z9 + z16 <= 1
 constraints3_9_|_20: z9 + z20 <= 1
 constraints3_10_|_12: z10 + z12 <= 1
 constraints3_10_|_16: z10 + z16 <= 1
 constraints3_10_|_20: z10 + z20 <= 1
 constraints3_14_|_17: z14 + z17 <= 1
 constraints3_16_|_18: z16 + z18 <= 1
 constraints3_17_|_20: z17 + z20 <= 1
 constraints3_18_|_20: z18 + z20 <= 1
 constraints3_19_|_20: z19 + z20 <= 1
Bounds
Binaries
 z1 z2 z3 z4 z5 z6 z7 z8 z9 z10 z11 z12 z13 z14 z15 z16 z17 z18 z19 z20
End
